(set-logic QF_S)
(declare-fun var0 () String)
(assert (str.in.re var0 (re.++ (re.* (re.union (str.to.re "00") (str.to.re "11"))) (re.++ (re.union (re.+ (str.to.re "2")) (re.+ (str.to.re "33"))) (re.++ (re.union (re.union (str.to.re "444") (str.to.re "5")) (re.union (str.to.re "66") (str.to.re "777"))) (re.++ (re.+ (re.union (str.to.re "888") (str.to.re "999"))) (re.++ (re.union (re.* (str.to.re "a")) (re.* (str.to.re "bb"))) (re.++ (re.* (re.* (str.to.re "ccc"))) (re.++ (re.+ (re.+ (str.to.re "dd"))) (re.++ (re.union (re.+ (str.to.re "ee")) (re.+ (str.to.re "f"))) (re.++ (re.+ (re.+ (str.to.re "ggg"))) (re.++ (re.+ (re.+ (str.to.re "hh"))) (re.++ (re.union (re.+ (str.to.re "iii")) (re.+ (str.to.re "jj"))) (re.++ (re.union (re.union (str.to.re "kkk") (str.to.re "l")) (re.union (str.to.re "mm") (str.to.re "nnn"))) (re.++ (re.* (re.* (str.to.re "ooo"))) (re.++ (re.+ (re.union (str.to.re "p") (str.to.re "q"))) (re.++ (re.union (re.+ (str.to.re "rrr")) (re.+ (str.to.re "s"))) (re.++ (re.+ (re.union (str.to.re "tt") (str.to.re "uu"))) (re.++ (re.* (re.+ (str.to.re "vv"))) (re.++ (re.+ (re.union (str.to.re "www") (str.to.re "xxx"))) (re.++ (re.union (re.* (str.to.re "yy")) (re.* (str.to.re "zz"))) (re.++ (re.union (re.union (str.to.re "AA") (str.to.re "BB")) (re.union (str.to.re "CCC") (str.to.re "DDD"))) (re.++ (re.union (re.+ (str.to.re "E")) (re.+ (str.to.re "FF"))) (re.++ (re.* (re.union (str.to.re "G") (str.to.re "HH"))) (re.++ (re.union (re.union (str.to.re "I") (str.to.re "J")) (re.union (str.to.re "KKK") (str.to.re "LLL"))) (re.++ (re.* (re.+ (str.to.re "MM"))) (re.++ (re.union (re.union (str.to.re "N") (str.to.re "OOO")) (re.union (str.to.re "PP") (str.to.re "QQQ"))) (re.++ (re.* (re.+ (str.to.re "RR"))) (re.++ (re.+ (re.* (str.to.re "SS"))) (re.++ (re.+ (re.* (str.to.re "TT"))) (re.++ (re.* (re.+ (str.to.re "U"))) (re.++ (re.+ (re.union (str.to.re "VVV") (str.to.re "WWW"))) (re.union (re.union (str.to.re "XXX") (str.to.re "YY")) (re.union (str.to.re "ZZ") (str.to.re "!!!")))))))))))))))))))))))))))))))))))
(check-sat)